title               job1
$....MARC input file produced by Marc Mentat 2014.0.0 (64bit)
$...................................
$....input file using extended precision
extended
$...................................
sizing                                 0         1         2         0
alloc                       25
elements                     9
version                     11
table                        0         0         2         1         1         0         0         1
processor                    1         1         1         0
$no list
all points
no echo                      1         2         3
end
$...................
solver
         8         0         0         0         0         0         0         0         0         0         0         0         0         0         0         0
optimize                    11
connectivity
         0         0         1
         1         9         1         2
coordinates
         3         2         0         1
         1 0.000000000000000+0 0.000000000000000+0 0.000000000000000+0
         2 1.000000000000000+2 0.000000000000000+0 0.000000000000000+0
define              node                set                 apply1_nodes
           1
define              node                set                 apply2_nodes
           2
isotropic

         1von mises           isotropic                   10         0         0         0material1
 7.300000000000000+4 0.000000000000000+0 0.000000000000000+0 0.000000000000000+0 1.000000000000000+0 0.000000000000000+0 0.000000000000000+0 0.000000000000000+0
         0         0         0         0         0         0         0         0
           1
work hard
        -1         0         1         0
table               ramp
         1         1         0         0         2
         1         2         2         0         0         2         0         0         2         0         0         2
 0.000000000000000+0 0.000000000000000+0
 1.000000000000000+0 1.000000000000000+0
geometry

 4.000000000000000+2 0.000000000000000+0 0.000000000000000+0 0.000000000000000+0 0.000000000000000+0 0.000000000000000+0 0.000000000000000+0
           1
fixed disp

         1         0         0         0         1         0apply1
 0.000000000000000+0 0.000000000000000+0 0.000000000000000+0
         0         0         0
         1         2         3
         2
apply1_nodes
         1         0         0         0         1         0apply2
 1.500000000000000+1
         1
         1
         2
apply2_nodes
loadcase            job1
         1
apply1
no print
post
         4        16        17         0         0        19        20         0         1         0         0         0         0         0         0         0
        17         0
       301         0
       311         0
       321         0
parameters
 1.000000000000000+0 1.000000000000000+9 1.000000000000000+2 1.000000000000000+6 2.500000000000000-1 5.000000000000000-1 1.500000000000000+0-5.000000000000000-1
 8.625000000000000+0 2.000000000000000+1 1.000000000000000-4 1.000000000000000-6 1.000000000000000+0 1.000000000000000-4
 8.314000000000000+0 2.731500000000000+2 5.000000000000000-1 0.000000000000000+0 5.670510000000000-8 1.438769000000000-2 2.997900000000000+8 1.00000000000000+30
 0.000000000000000+0 0.000000000000000+0 1.000000000000000+2 0.000000000000000+0 1.000000000000000+0-2.000000000000000+0 1.000000000000000+6
 0.000000000000000+0 0.000000000000000+0 1.256637061000000-6 8.85418781700000-12 1.200000000000000+2 1.000000000000000-3 1.600000000000000+2 0.000000000000000+0
TABLE,DATA_POINTS
2,1,,,2
11,7,1,0,0,2,0,0,2,0,0,2
0.E0, 190.E0
0.005E0, 198.E0
0.015E0, 209.E0
0.03E0, 225.E0
0.05E0, 238.E0
0.07E0, 242.E0
0.15E0, 256.E0
end option
$...................
$....start of loadcase lcase1
title               lcase1
loadcase            lcase1
         2
apply1
apply2
control
     99999        10         0         0         0         1         0         0         1         0         1         0
 1.000000000000000-1 0.000000000000000+0 0.000000000000000+0 0.000000000000000+0 0.000000000000000+0 0.000000000000000+0 0.000000000000000+0 0.000000000000000+0
parameters
 1.000000000000000+0 1.000000000000000+9 1.000000000000000+2 1.000000000000000+6 2.500000000000000-1 5.000000000000000-1 1.500000000000000+0-5.000000000000000-1
 8.625000000000000+0 2.000000000000000+1 1.000000000000000-4 1.000000000000000-6 1.000000000000000+0 1.000000000000000-4
 8.314000000000000+0 2.731500000000000+2 5.000000000000000-1 0.000000000000000+0 5.670510000000000-8 1.438769000000000-2 2.997900000000000+8 1.00000000000000+30
 0.000000000000000+0 0.000000000000000+0 1.000000000000000+2 0.000000000000000+0 1.000000000000000+0-1.000000000000000+0 1.000000000000000+6
 0.000000000000000+0 0.000000000000000+0 1.256637061000000-6 8.85418781700000-12 1.200000000000000+2 1.000000000000000-3 1.600000000000000+2 0.000000000000000+0
auto load
        10         0        10
time step
 1.000000000000000-1
continue
$....end of loadcase lcase1
$...................
