Comp 11 of Total Strain Node 2 	Equivalent Von Mises Stress Node 2 
0	0
0.015	205.897
0.03	221.76
0.045	232.678
0.06	239.344
0.075	242.294
0.09	244.913
0.105	247.532
0.12	250.15
0.135	252.769
0.15	255.388
