title               job1
$....MARC input file produced by Marc Mentat 2014.0.0 (64bit)
$...................................
$....input file using extended precision
extended
$...................................
sizing                                 0         1         2         0
alloc                       25
elements                     9
version                     11
processor                    1         1         1         0
$no list
all points
no echo                      1         2         3
end
$...................
solver
         8         0         0         0         0         0         0         0         0         0         0         0         0         0         0         0
optimize                    11
connectivity
         0         0         1
         1         9         1         2
coordinates
         3         2         0         1
         1 0.000000000000000+0 0.000000000000000+0 0.000000000000000+0
         2 1.000000000000000+2 0.000000000000000+0 0.000000000000000+0
define              node                set                 apply1_nodes
           1
define              node                set                 apply2_nodes
           2
isotropic

         1von mises           isotropic                   10         0         0         0material1
 7.300000000000000+4 0.000000000000000+0 0.000000000000000+0 0.000000000000000+0 1.900000000000000+2 0.000000000000000+0 0.000000000000000+0 0.000000000000000+0
           1
geometry

 4.000000000000000+2 0.000000000000000+0 0.000000000000000+0 0.000000000000000+0 0.000000000000000+0 0.000000000000000+0 0.000000000000000+0
           1
fixed disp

 0.000000000000000+0 0.000000000000000+0 0.000000000000000+0
         1         2         3
           1
no print
post
         4        16        17         0         0        19        20         0         1         0         0         0         0         0         0         0
        17         0
       301         0
       311         0
       321         0
parameters
 1.000000000000000+0 1.000000000000000+9 1.000000000000000+2 1.000000000000000+6 2.500000000000000-1 5.000000000000000-1 1.500000000000000+0-5.000000000000000-1
 8.625000000000000+0 2.000000000000000+1 1.000000000000000-4 1.000000000000000-6 1.000000000000000+0 1.000000000000000-4
 8.314000000000000+0 2.731500000000000+2 5.000000000000000-1 0.000000000000000+0 5.670510000000000-8 1.438769000000000-2 2.997900000000000+8 1.00000000000000+30
 0.000000000000000+0 0.000000000000000+0 1.000000000000000+2 0.000000000000000+0 1.000000000000000+0-2.000000000000000+0 1.000000000000000+6
 0.000000000000000+0 0.000000000000000+0 1.256637061000000-6 8.85418781700000-12 1.200000000000000+2 1.000000000000000-3 1.600000000000000+2 0.000000000000000+0
WORK HARD,DATA
7,0,1,,
190.D0,0.D0
198.D0,0.005D0
209.D0,0.015D0
225.D0,0.03D0
238.D0,0.05D0
242.D0,0.07D0
256.D0,0.15D0
end option
$...................
$....start of loadcase lcase1
title               lcase1
control
     99999        10         0         0         0         1         0         0         1         0         1         0
 1.000000000000000-1 0.000000000000000+0 0.000000000000000+0 0.000000000000000+0 0.000000000000000+0 0.000000000000000+0 0.000000000000000+0 0.000000000000000+0
parameters
 1.000000000000000+0 1.000000000000000+9 1.000000000000000+2 1.000000000000000+6 2.500000000000000-1 5.000000000000000-1 1.500000000000000+0-5.000000000000000-1
 8.625000000000000+0 2.000000000000000+1 1.000000000000000-4 1.000000000000000-6 1.000000000000000+0 1.000000000000000-4
 8.314000000000000+0 2.731500000000000+2 5.000000000000000-1 0.000000000000000+0 5.670510000000000-8 1.438769000000000-2 2.997900000000000+8 1.00000000000000+30
 0.000000000000000+0 0.000000000000000+0 1.000000000000000+2 0.000000000000000+0 1.000000000000000+0-1.000000000000000+0 1.000000000000000+6
 0.000000000000000+0 0.000000000000000+0 1.256637061000000-6 8.85418781700000-12 1.200000000000000+2 1.000000000000000-3 1.600000000000000+2 0.000000000000000+0
auto load
        10         0        10
time step
 1.000000000000000-1
disp change
         0         0         1

 0.000000000000000+0 0.000000000000000+0 0.000000000000000+0
         1         2         3
           1
 1.500000000000000+0
         1
           2
continue
$....end of loadcase lcase1
$...................
